# inputs_potential 
# aij 		A (force units)
# aij 		gamma (force/velocity units) / (1A/fs)
# RcG 		cutoff (distance units)
# 
#------------------------------------------------------
pair_coeff 1 1 ${a_1_1} ${a_1_1} ${RcG}
pair_coeff 1 2 ${a_1_2} ${a_1_2} ${RcG}
pair_coeff 1 3 ${a_1_3} ${a_1_3} ${RcG}
pair_coeff 1 4 ${a_1_4} ${a_1_4} ${RcG}
pair_coeff 1 5 ${a_1_5} ${a_1_5} ${RcG}
pair_coeff 1 6 ${a_1_6} ${a_1_6} ${RcG}
pair_coeff 1 7 ${a_1_7} ${a_1_7} ${RcG}
pair_coeff 1 8 ${a_1_8} ${a_1_8} ${RcG}
pair_coeff 1 9 ${a_1_9} ${a_1_9} ${RcG}
pair_coeff 1 10 ${a_1_10} ${a_1_10} ${RcG}
pair_coeff 1 11 ${a_1_11} ${a_1_11} ${RcG}
pair_coeff 1 12 ${a_1_12} ${a_1_12} ${RcG}
pair_coeff 1 13 ${a_1_13} ${a_1_13} ${RcG}
pair_coeff 1 14 ${a_1_14} ${a_1_14} ${RcG}
pair_coeff 1 15 ${a_1_15} ${a_1_15} ${RcG}
pair_coeff 1 16 ${a_1_16} ${a_1_16} ${RcG}
pair_coeff 1 17 ${a_1_17} ${a_1_17} ${RcG}
pair_coeff 1 18 ${a_1_18} ${a_1_18} ${RcG}
pair_coeff 1 19 ${a_1_19} ${a_1_19} ${RcG}
pair_coeff 1 20 ${a_1_20} ${a_1_20} ${RcG}
pair_coeff 1 21 ${a_1_21} ${a_1_21} ${RcG}
pair_coeff 1 22 ${a_1_22} ${a_1_22} ${RcG}
pair_coeff 1 23 ${a_1_23} ${a_1_23} ${RcG}
pair_coeff 2 1 ${a_2_1} ${a_2_1} ${RcG}
pair_coeff 2 2 ${a_2_2} ${a_2_2} ${RcG}
pair_coeff 2 3 ${a_2_3} ${a_2_3} ${RcG}
pair_coeff 2 4 ${a_2_4} ${a_2_4} ${RcG}
pair_coeff 2 5 ${a_2_5} ${a_2_5} ${RcG}
pair_coeff 2 6 ${a_2_6} ${a_2_6} ${RcG}
pair_coeff 2 7 ${a_2_7} ${a_2_7} ${RcG}
pair_coeff 2 8 ${a_2_8} ${a_2_8} ${RcG}
pair_coeff 2 9 ${a_2_9} ${a_2_9} ${RcG}
pair_coeff 2 10 ${a_2_10} ${a_2_10} ${RcG}
pair_coeff 2 11 ${a_2_11} ${a_2_11} ${RcG}
pair_coeff 2 12 ${a_2_12} ${a_2_12} ${RcG}
pair_coeff 2 13 ${a_2_13} ${a_2_13} ${RcG}
pair_coeff 2 14 ${a_2_14} ${a_2_14} ${RcG}
pair_coeff 2 15 ${a_2_15} ${a_2_15} ${RcG}
pair_coeff 2 16 ${a_2_16} ${a_2_16} ${RcG}
pair_coeff 2 17 ${a_2_17} ${a_2_17} ${RcG}
pair_coeff 2 18 ${a_2_18} ${a_2_18} ${RcG}
pair_coeff 2 19 ${a_2_19} ${a_2_19} ${RcG}
pair_coeff 2 20 ${a_2_20} ${a_2_20} ${RcG}
pair_coeff 2 21 ${a_2_21} ${a_2_21} ${RcG}
pair_coeff 2 22 ${a_2_22} ${a_2_22} ${RcG}
pair_coeff 2 23 ${a_2_23} ${a_2_23} ${RcG}
pair_coeff 3 1 ${a_3_1} ${a_3_1} ${RcG}
pair_coeff 3 2 ${a_3_2} ${a_3_2} ${RcG}
pair_coeff 3 3 ${a_3_3} ${a_3_3} ${RcG}
pair_coeff 3 4 ${a_3_4} ${a_3_4} ${RcG}
pair_coeff 3 5 ${a_3_5} ${a_3_5} ${RcG}
pair_coeff 3 6 ${a_3_6} ${a_3_6} ${RcG}
pair_coeff 3 7 ${a_3_7} ${a_3_7} ${RcG}
pair_coeff 3 8 ${a_3_8} ${a_3_8} ${RcG}
pair_coeff 3 9 ${a_3_9} ${a_3_9} ${RcG}
pair_coeff 3 10 ${a_3_10} ${a_3_10} ${RcG}
pair_coeff 3 11 ${a_3_11} ${a_3_11} ${RcG}
pair_coeff 3 12 ${a_3_12} ${a_3_12} ${RcG}
pair_coeff 3 13 ${a_3_13} ${a_3_13} ${RcG}
pair_coeff 3 14 ${a_3_14} ${a_3_14} ${RcG}
pair_coeff 3 15 ${a_3_15} ${a_3_15} ${RcG}
pair_coeff 3 16 ${a_3_16} ${a_3_16} ${RcG}
pair_coeff 3 17 ${a_3_17} ${a_3_17} ${RcG}
pair_coeff 3 18 ${a_3_18} ${a_3_18} ${RcG}
pair_coeff 3 19 ${a_3_19} ${a_3_19} ${RcG}
pair_coeff 3 20 ${a_3_20} ${a_3_20} ${RcG}
pair_coeff 3 21 ${a_3_21} ${a_3_21} ${RcG}
pair_coeff 3 22 ${a_3_22} ${a_3_22} ${RcG}
pair_coeff 3 23 ${a_3_23} ${a_3_23} ${RcG}
pair_coeff 4 1 ${a_4_1} ${a_4_1} ${RcG}
pair_coeff 4 2 ${a_4_2} ${a_4_2} ${RcG}
pair_coeff 4 3 ${a_4_3} ${a_4_3} ${RcG}
pair_coeff 4 4 ${a_4_4} ${a_4_4} ${RcG}
pair_coeff 4 5 ${a_4_5} ${a_4_5} ${RcG}
pair_coeff 4 6 ${a_4_6} ${a_4_6} ${RcG}
pair_coeff 4 7 ${a_4_7} ${a_4_7} ${RcG}
pair_coeff 4 8 ${a_4_8} ${a_4_8} ${RcG}
pair_coeff 4 9 ${a_4_9} ${a_4_9} ${RcG}
pair_coeff 4 10 ${a_4_10} ${a_4_10} ${RcG}
pair_coeff 4 11 ${a_4_11} ${a_4_11} ${RcG}
pair_coeff 4 12 ${a_4_12} ${a_4_12} ${RcG}
pair_coeff 4 13 ${a_4_13} ${a_4_13} ${RcG}
pair_coeff 4 14 ${a_4_14} ${a_4_14} ${RcG}
pair_coeff 4 15 ${a_4_15} ${a_4_15} ${RcG}
pair_coeff 4 16 ${a_4_16} ${a_4_16} ${RcG}
pair_coeff 4 17 ${a_4_17} ${a_4_17} ${RcG}
pair_coeff 4 18 ${a_4_18} ${a_4_18} ${RcG}
pair_coeff 4 19 ${a_4_19} ${a_4_19} ${RcG}
pair_coeff 4 20 ${a_4_20} ${a_4_20} ${RcG}
pair_coeff 4 21 ${a_4_21} ${a_4_21} ${RcG}
pair_coeff 4 22 ${a_4_22} ${a_4_22} ${RcG}
pair_coeff 4 23 ${a_4_23} ${a_4_23} ${RcG}
pair_coeff 5 1 ${a_5_1} ${a_5_1} ${RcG}
pair_coeff 5 2 ${a_5_2} ${a_5_2} ${RcG}
pair_coeff 5 3 ${a_5_3} ${a_5_3} ${RcG}
pair_coeff 5 4 ${a_5_4} ${a_5_4} ${RcG}
pair_coeff 5 5 ${a_5_5} ${a_5_5} ${RcG}
pair_coeff 5 6 ${a_5_6} ${a_5_6} ${RcG}
pair_coeff 5 7 ${a_5_7} ${a_5_7} ${RcG}
pair_coeff 5 8 ${a_5_8} ${a_5_8} ${RcG}
pair_coeff 5 9 ${a_5_9} ${a_5_9} ${RcG}
pair_coeff 5 10 ${a_5_10} ${a_5_10} ${RcG}
pair_coeff 5 11 ${a_5_11} ${a_5_11} ${RcG}
pair_coeff 5 12 ${a_5_12} ${a_5_12} ${RcG}
pair_coeff 5 13 ${a_5_13} ${a_5_13} ${RcG}
pair_coeff 5 14 ${a_5_14} ${a_5_14} ${RcG}
pair_coeff 5 15 ${a_5_15} ${a_5_15} ${RcG}
pair_coeff 5 16 ${a_5_16} ${a_5_16} ${RcG}
pair_coeff 5 17 ${a_5_17} ${a_5_17} ${RcG}
pair_coeff 5 18 ${a_5_18} ${a_5_18} ${RcG}
pair_coeff 5 19 ${a_5_19} ${a_5_19} ${RcG}
pair_coeff 5 20 ${a_5_20} ${a_5_20} ${RcG}
pair_coeff 5 21 ${a_5_21} ${a_5_21} ${RcG}
pair_coeff 5 22 ${a_5_22} ${a_5_22} ${RcG}
pair_coeff 5 23 ${a_5_23} ${a_5_23} ${RcG}
pair_coeff 6 1 ${a_6_1} ${a_6_1} ${RcG}
pair_coeff 6 2 ${a_6_2} ${a_6_2} ${RcG}
pair_coeff 6 3 ${a_6_3} ${a_6_3} ${RcG}
pair_coeff 6 4 ${a_6_4} ${a_6_4} ${RcG}
pair_coeff 6 5 ${a_6_5} ${a_6_5} ${RcG}
pair_coeff 6 6 ${a_6_6} ${a_6_6} ${RcG}
pair_coeff 6 7 ${a_6_7} ${a_6_7} ${RcG}
pair_coeff 6 8 ${a_6_8} ${a_6_8} ${RcG}
pair_coeff 6 9 ${a_6_9} ${a_6_9} ${RcG}
pair_coeff 6 10 ${a_6_10} ${a_6_10} ${RcG}
pair_coeff 6 11 ${a_6_11} ${a_6_11} ${RcG}
pair_coeff 6 12 ${a_6_12} ${a_6_12} ${RcG}
pair_coeff 6 13 ${a_6_13} ${a_6_13} ${RcG}
pair_coeff 6 14 ${a_6_14} ${a_6_14} ${RcG}
pair_coeff 6 15 ${a_6_15} ${a_6_15} ${RcG}
pair_coeff 6 16 ${a_6_16} ${a_6_16} ${RcG}
pair_coeff 6 17 ${a_6_17} ${a_6_17} ${RcG}
pair_coeff 6 18 ${a_6_18} ${a_6_18} ${RcG}
pair_coeff 6 19 ${a_6_19} ${a_6_19} ${RcG}
pair_coeff 6 20 ${a_6_20} ${a_6_20} ${RcG}
pair_coeff 6 21 ${a_6_21} ${a_6_21} ${RcG}
pair_coeff 6 22 ${a_6_22} ${a_6_22} ${RcG}
pair_coeff 6 23 ${a_6_23} ${a_6_23} ${RcG}
pair_coeff 7 1 ${a_7_1} ${a_7_1} ${RcG}
pair_coeff 7 2 ${a_7_2} ${a_7_2} ${RcG}
pair_coeff 7 3 ${a_7_3} ${a_7_3} ${RcG}
pair_coeff 7 4 ${a_7_4} ${a_7_4} ${RcG}
pair_coeff 7 5 ${a_7_5} ${a_7_5} ${RcG}
pair_coeff 7 6 ${a_7_6} ${a_7_6} ${RcG}
pair_coeff 7 7 ${a_7_7} ${a_7_7} ${RcG}
pair_coeff 7 8 ${a_7_8} ${a_7_8} ${RcG}
pair_coeff 7 9 ${a_7_9} ${a_7_9} ${RcG}
pair_coeff 7 10 ${a_7_10} ${a_7_10} ${RcG}
pair_coeff 7 11 ${a_7_11} ${a_7_11} ${RcG}
pair_coeff 7 12 ${a_7_12} ${a_7_12} ${RcG}
pair_coeff 7 13 ${a_7_13} ${a_7_13} ${RcG}
pair_coeff 7 14 ${a_7_14} ${a_7_14} ${RcG}
pair_coeff 7 15 ${a_7_15} ${a_7_15} ${RcG}
pair_coeff 7 16 ${a_7_16} ${a_7_16} ${RcG}
pair_coeff 7 17 ${a_7_17} ${a_7_17} ${RcG}
pair_coeff 7 18 ${a_7_18} ${a_7_18} ${RcG}
pair_coeff 7 19 ${a_7_19} ${a_7_19} ${RcG}
pair_coeff 7 20 ${a_7_20} ${a_7_20} ${RcG}
pair_coeff 7 21 ${a_7_21} ${a_7_21} ${RcG}
pair_coeff 7 22 ${a_7_22} ${a_7_22} ${RcG}
pair_coeff 7 23 ${a_7_23} ${a_7_23} ${RcG}
pair_coeff 8 1 ${a_8_1} ${a_8_1} ${RcG}
pair_coeff 8 2 ${a_8_2} ${a_8_2} ${RcG}
pair_coeff 8 3 ${a_8_3} ${a_8_3} ${RcG}
pair_coeff 8 4 ${a_8_4} ${a_8_4} ${RcG}
pair_coeff 8 5 ${a_8_5} ${a_8_5} ${RcG}
pair_coeff 8 6 ${a_8_6} ${a_8_6} ${RcG}
pair_coeff 8 7 ${a_8_7} ${a_8_7} ${RcG}
pair_coeff 8 8 ${a_8_8} ${a_8_8} ${RcG}
pair_coeff 8 9 ${a_8_9} ${a_8_9} ${RcG}
pair_coeff 8 10 ${a_8_10} ${a_8_10} ${RcG}
pair_coeff 8 11 ${a_8_11} ${a_8_11} ${RcG}
pair_coeff 8 12 ${a_8_12} ${a_8_12} ${RcG}
pair_coeff 8 13 ${a_8_13} ${a_8_13} ${RcG}
pair_coeff 8 14 ${a_8_14} ${a_8_14} ${RcG}
pair_coeff 8 15 ${a_8_15} ${a_8_15} ${RcG}
pair_coeff 8 16 ${a_8_16} ${a_8_16} ${RcG}
pair_coeff 8 17 ${a_8_17} ${a_8_17} ${RcG}
pair_coeff 8 18 ${a_8_18} ${a_8_18} ${RcG}
pair_coeff 8 19 ${a_8_19} ${a_8_19} ${RcG}
pair_coeff 8 20 ${a_8_20} ${a_8_20} ${RcG}
pair_coeff 8 21 ${a_8_21} ${a_8_21} ${RcG}
pair_coeff 8 22 ${a_8_22} ${a_8_22} ${RcG}
pair_coeff 8 23 ${a_8_23} ${a_8_23} ${RcG}
pair_coeff 9 1 ${a_9_1} ${a_9_1} ${RcG}
pair_coeff 9 2 ${a_9_2} ${a_9_2} ${RcG}
pair_coeff 9 3 ${a_9_3} ${a_9_3} ${RcG}
pair_coeff 9 4 ${a_9_4} ${a_9_4} ${RcG}
pair_coeff 9 5 ${a_9_5} ${a_9_5} ${RcG}
pair_coeff 9 6 ${a_9_6} ${a_9_6} ${RcG}
pair_coeff 9 7 ${a_9_7} ${a_9_7} ${RcG}
pair_coeff 9 8 ${a_9_8} ${a_9_8} ${RcG}
pair_coeff 9 9 ${a_9_9} ${a_9_9} ${RcG}
pair_coeff 9 10 ${a_9_10} ${a_9_10} ${RcG}
pair_coeff 9 11 ${a_9_11} ${a_9_11} ${RcG}
pair_coeff 9 12 ${a_9_12} ${a_9_12} ${RcG}
pair_coeff 9 13 ${a_9_13} ${a_9_13} ${RcG}
pair_coeff 9 14 ${a_9_14} ${a_9_14} ${RcG}
pair_coeff 9 15 ${a_9_15} ${a_9_15} ${RcG}
pair_coeff 9 16 ${a_9_16} ${a_9_16} ${RcG}
pair_coeff 9 17 ${a_9_17} ${a_9_17} ${RcG}
pair_coeff 9 18 ${a_9_18} ${a_9_18} ${RcG}
pair_coeff 9 19 ${a_9_19} ${a_9_19} ${RcG}
pair_coeff 9 20 ${a_9_20} ${a_9_20} ${RcG}
pair_coeff 9 21 ${a_9_21} ${a_9_21} ${RcG}
pair_coeff 9 22 ${a_9_22} ${a_9_22} ${RcG}
pair_coeff 9 23 ${a_9_23} ${a_9_23} ${RcG}
pair_coeff 10 1 ${a_10_1} ${a_10_1} ${RcG}
pair_coeff 10 2 ${a_10_2} ${a_10_2} ${RcG}
pair_coeff 10 3 ${a_10_3} ${a_10_3} ${RcG}
pair_coeff 10 4 ${a_10_4} ${a_10_4} ${RcG}
pair_coeff 10 5 ${a_10_5} ${a_10_5} ${RcG}
pair_coeff 10 6 ${a_10_6} ${a_10_6} ${RcG}
pair_coeff 10 7 ${a_10_7} ${a_10_7} ${RcG}
pair_coeff 10 8 ${a_10_8} ${a_10_8} ${RcG}
pair_coeff 10 9 ${a_10_9} ${a_10_9} ${RcG}
pair_coeff 10 10 ${a_10_10} ${a_10_10} ${RcG}
pair_coeff 10 11 ${a_10_11} ${a_10_11} ${RcG}
pair_coeff 10 12 ${a_10_12} ${a_10_12} ${RcG}
pair_coeff 10 13 ${a_10_13} ${a_10_13} ${RcG}
pair_coeff 10 14 ${a_10_14} ${a_10_14} ${RcG}
pair_coeff 10 15 ${a_10_15} ${a_10_15} ${RcG}
pair_coeff 10 16 ${a_10_16} ${a_10_16} ${RcG}
pair_coeff 10 17 ${a_10_17} ${a_10_17} ${RcG}
pair_coeff 10 18 ${a_10_18} ${a_10_18} ${RcG}
pair_coeff 10 19 ${a_10_19} ${a_10_19} ${RcG}
pair_coeff 10 20 ${a_10_20} ${a_10_20} ${RcG}
pair_coeff 10 21 ${a_10_21} ${a_10_21} ${RcG}
pair_coeff 10 22 ${a_10_22} ${a_10_22} ${RcG}
pair_coeff 10 23 ${a_10_23} ${a_10_23} ${RcG}
pair_coeff 11 1 ${a_11_1} ${a_11_1} ${RcG}
pair_coeff 11 2 ${a_11_2} ${a_11_2} ${RcG}
pair_coeff 11 3 ${a_11_3} ${a_11_3} ${RcG}
pair_coeff 11 4 ${a_11_4} ${a_11_4} ${RcG}
pair_coeff 11 5 ${a_11_5} ${a_11_5} ${RcG}
pair_coeff 11 6 ${a_11_6} ${a_11_6} ${RcG}
pair_coeff 11 7 ${a_11_7} ${a_11_7} ${RcG}
pair_coeff 11 8 ${a_11_8} ${a_11_8} ${RcG}
pair_coeff 11 9 ${a_11_9} ${a_11_9} ${RcG}
pair_coeff 11 10 ${a_11_10} ${a_11_10} ${RcG}
pair_coeff 11 11 ${a_11_11} ${a_11_11} ${RcG}
pair_coeff 11 12 ${a_11_12} ${a_11_12} ${RcG}
pair_coeff 11 13 ${a_11_13} ${a_11_13} ${RcG}
pair_coeff 11 14 ${a_11_14} ${a_11_14} ${RcG}
pair_coeff 11 15 ${a_11_15} ${a_11_15} ${RcG}
pair_coeff 11 16 ${a_11_16} ${a_11_16} ${RcG}
pair_coeff 11 17 ${a_11_17} ${a_11_17} ${RcG}
pair_coeff 11 18 ${a_11_18} ${a_11_18} ${RcG}
pair_coeff 11 19 ${a_11_19} ${a_11_19} ${RcG}
pair_coeff 11 20 ${a_11_20} ${a_11_20} ${RcG}
pair_coeff 11 21 ${a_11_21} ${a_11_21} ${RcG}
pair_coeff 11 22 ${a_11_22} ${a_11_22} ${RcG}
pair_coeff 11 23 ${a_11_23} ${a_11_23} ${RcG}
pair_coeff 12 1 ${a_12_1} ${a_12_1} ${RcG}
pair_coeff 12 2 ${a_12_2} ${a_12_2} ${RcG}
pair_coeff 12 3 ${a_12_3} ${a_12_3} ${RcG}
pair_coeff 12 4 ${a_12_4} ${a_12_4} ${RcG}
pair_coeff 12 5 ${a_12_5} ${a_12_5} ${RcG}
pair_coeff 12 6 ${a_12_6} ${a_12_6} ${RcG}
pair_coeff 12 7 ${a_12_7} ${a_12_7} ${RcG}
pair_coeff 12 8 ${a_12_8} ${a_12_8} ${RcG}
pair_coeff 12 9 ${a_12_9} ${a_12_9} ${RcG}
pair_coeff 12 10 ${a_12_10} ${a_12_10} ${RcG}
pair_coeff 12 11 ${a_12_11} ${a_12_11} ${RcG}
pair_coeff 12 12 ${a_12_12} ${a_12_12} ${RcG}
pair_coeff 12 13 ${a_12_13} ${a_12_13} ${RcG}
pair_coeff 12 14 ${a_12_14} ${a_12_14} ${RcG}
pair_coeff 12 15 ${a_12_15} ${a_12_15} ${RcG}
pair_coeff 12 16 ${a_12_16} ${a_12_16} ${RcG}
pair_coeff 12 17 ${a_12_17} ${a_12_17} ${RcG}
pair_coeff 12 18 ${a_12_18} ${a_12_18} ${RcG}
pair_coeff 12 19 ${a_12_19} ${a_12_19} ${RcG}
pair_coeff 12 20 ${a_12_20} ${a_12_20} ${RcG}
pair_coeff 12 21 ${a_12_21} ${a_12_21} ${RcG}
pair_coeff 12 22 ${a_12_22} ${a_12_22} ${RcG}
pair_coeff 12 23 ${a_12_23} ${a_12_23} ${RcG}
pair_coeff 13 1 ${a_13_1} ${a_13_1} ${RcG}
pair_coeff 13 2 ${a_13_2} ${a_13_2} ${RcG}
pair_coeff 13 3 ${a_13_3} ${a_13_3} ${RcG}
pair_coeff 13 4 ${a_13_4} ${a_13_4} ${RcG}
pair_coeff 13 5 ${a_13_5} ${a_13_5} ${RcG}
pair_coeff 13 6 ${a_13_6} ${a_13_6} ${RcG}
pair_coeff 13 7 ${a_13_7} ${a_13_7} ${RcG}
pair_coeff 13 8 ${a_13_8} ${a_13_8} ${RcG}
pair_coeff 13 9 ${a_13_9} ${a_13_9} ${RcG}
pair_coeff 13 10 ${a_13_10} ${a_13_10} ${RcG}
pair_coeff 13 11 ${a_13_11} ${a_13_11} ${RcG}
pair_coeff 13 12 ${a_13_12} ${a_13_12} ${RcG}
pair_coeff 13 13 ${a_13_13} ${a_13_13} ${RcG}
pair_coeff 13 14 ${a_13_14} ${a_13_14} ${RcG}
pair_coeff 13 15 ${a_13_15} ${a_13_15} ${RcG}
pair_coeff 13 16 ${a_13_16} ${a_13_16} ${RcG}
pair_coeff 13 17 ${a_13_17} ${a_13_17} ${RcG}
pair_coeff 13 18 ${a_13_18} ${a_13_18} ${RcG}
pair_coeff 13 19 ${a_13_19} ${a_13_19} ${RcG}
pair_coeff 13 20 ${a_13_20} ${a_13_20} ${RcG}
pair_coeff 13 21 ${a_13_21} ${a_13_21} ${RcG}
pair_coeff 13 22 ${a_13_22} ${a_13_22} ${RcG}
pair_coeff 13 23 ${a_13_23} ${a_13_23} ${RcG}
pair_coeff 14 1 ${a_14_1} ${a_14_1} ${RcG}
pair_coeff 14 2 ${a_14_2} ${a_14_2} ${RcG}
pair_coeff 14 3 ${a_14_3} ${a_14_3} ${RcG}
pair_coeff 14 4 ${a_14_4} ${a_14_4} ${RcG}
pair_coeff 14 5 ${a_14_5} ${a_14_5} ${RcG}
pair_coeff 14 6 ${a_14_6} ${a_14_6} ${RcG}
pair_coeff 14 7 ${a_14_7} ${a_14_7} ${RcG}
pair_coeff 14 8 ${a_14_8} ${a_14_8} ${RcG}
pair_coeff 14 9 ${a_14_9} ${a_14_9} ${RcG}
pair_coeff 14 10 ${a_14_10} ${a_14_10} ${RcG}
pair_coeff 14 11 ${a_14_11} ${a_14_11} ${RcG}
pair_coeff 14 12 ${a_14_12} ${a_14_12} ${RcG}
pair_coeff 14 13 ${a_14_13} ${a_14_13} ${RcG}
pair_coeff 14 14 ${a_14_14} ${a_14_14} ${RcG}
pair_coeff 14 15 ${a_14_15} ${a_14_15} ${RcG}
pair_coeff 14 16 ${a_14_16} ${a_14_16} ${RcG}
pair_coeff 14 17 ${a_14_17} ${a_14_17} ${RcG}
pair_coeff 14 18 ${a_14_18} ${a_14_18} ${RcG}
pair_coeff 14 19 ${a_14_19} ${a_14_19} ${RcG}
pair_coeff 14 20 ${a_14_20} ${a_14_20} ${RcG}
pair_coeff 14 21 ${a_14_21} ${a_14_21} ${RcG}
pair_coeff 14 22 ${a_14_22} ${a_14_22} ${RcG}
pair_coeff 14 23 ${a_14_23} ${a_14_23} ${RcG}
pair_coeff 15 1 ${a_15_1} ${a_15_1} ${RcG}
pair_coeff 15 2 ${a_15_2} ${a_15_2} ${RcG}
pair_coeff 15 3 ${a_15_3} ${a_15_3} ${RcG}
pair_coeff 15 4 ${a_15_4} ${a_15_4} ${RcG}
pair_coeff 15 5 ${a_15_5} ${a_15_5} ${RcG}
pair_coeff 15 6 ${a_15_6} ${a_15_6} ${RcG}
pair_coeff 15 7 ${a_15_7} ${a_15_7} ${RcG}
pair_coeff 15 8 ${a_15_8} ${a_15_8} ${RcG}
pair_coeff 15 9 ${a_15_9} ${a_15_9} ${RcG}
pair_coeff 15 10 ${a_15_10} ${a_15_10} ${RcG}
pair_coeff 15 11 ${a_15_11} ${a_15_11} ${RcG}
pair_coeff 15 12 ${a_15_12} ${a_15_12} ${RcG}
pair_coeff 15 13 ${a_15_13} ${a_15_13} ${RcG}
pair_coeff 15 14 ${a_15_14} ${a_15_14} ${RcG}
pair_coeff 15 15 ${a_15_15} ${a_15_15} ${RcG}
pair_coeff 15 16 ${a_15_16} ${a_15_16} ${RcG}
pair_coeff 15 17 ${a_15_17} ${a_15_17} ${RcG}
pair_coeff 15 18 ${a_15_18} ${a_15_18} ${RcG}
pair_coeff 15 19 ${a_15_19} ${a_15_19} ${RcG}
pair_coeff 15 20 ${a_15_20} ${a_15_20} ${RcG}
pair_coeff 15 21 ${a_15_21} ${a_15_21} ${RcG}
pair_coeff 15 22 ${a_15_22} ${a_15_22} ${RcG}
pair_coeff 15 23 ${a_15_23} ${a_15_23} ${RcG}
pair_coeff 16 1 ${a_16_1} ${a_16_1} ${RcG}
pair_coeff 16 2 ${a_16_2} ${a_16_2} ${RcG}
pair_coeff 16 3 ${a_16_3} ${a_16_3} ${RcG}
pair_coeff 16 4 ${a_16_4} ${a_16_4} ${RcG}
pair_coeff 16 5 ${a_16_5} ${a_16_5} ${RcG}
pair_coeff 16 6 ${a_16_6} ${a_16_6} ${RcG}
pair_coeff 16 7 ${a_16_7} ${a_16_7} ${RcG}
pair_coeff 16 8 ${a_16_8} ${a_16_8} ${RcG}
pair_coeff 16 9 ${a_16_9} ${a_16_9} ${RcG}
pair_coeff 16 10 ${a_16_10} ${a_16_10} ${RcG}
pair_coeff 16 11 ${a_16_11} ${a_16_11} ${RcG}
pair_coeff 16 12 ${a_16_12} ${a_16_12} ${RcG}
pair_coeff 16 13 ${a_16_13} ${a_16_13} ${RcG}
pair_coeff 16 14 ${a_16_14} ${a_16_14} ${RcG}
pair_coeff 16 15 ${a_16_15} ${a_16_15} ${RcG}
pair_coeff 16 16 ${a_16_16} ${a_16_16} ${RcG}
pair_coeff 16 17 ${a_16_17} ${a_16_17} ${RcG}
pair_coeff 16 18 ${a_16_18} ${a_16_18} ${RcG}
pair_coeff 16 19 ${a_16_19} ${a_16_19} ${RcG}
pair_coeff 16 20 ${a_16_20} ${a_16_20} ${RcG}
pair_coeff 16 21 ${a_16_21} ${a_16_21} ${RcG}
pair_coeff 16 22 ${a_16_22} ${a_16_22} ${RcG}
pair_coeff 16 23 ${a_16_23} ${a_16_23} ${RcG}
pair_coeff 17 1 ${a_17_1} ${a_17_1} ${RcG}
pair_coeff 17 2 ${a_17_2} ${a_17_2} ${RcG}
pair_coeff 17 3 ${a_17_3} ${a_17_3} ${RcG}
pair_coeff 17 4 ${a_17_4} ${a_17_4} ${RcG}
pair_coeff 17 5 ${a_17_5} ${a_17_5} ${RcG}
pair_coeff 17 6 ${a_17_6} ${a_17_6} ${RcG}
pair_coeff 17 7 ${a_17_7} ${a_17_7} ${RcG}
pair_coeff 17 8 ${a_17_8} ${a_17_8} ${RcG}
pair_coeff 17 9 ${a_17_9} ${a_17_9} ${RcG}
pair_coeff 17 10 ${a_17_10} ${a_17_10} ${RcG}
pair_coeff 17 11 ${a_17_11} ${a_17_11} ${RcG}
pair_coeff 17 12 ${a_17_12} ${a_17_12} ${RcG}
pair_coeff 17 13 ${a_17_13} ${a_17_13} ${RcG}
pair_coeff 17 14 ${a_17_14} ${a_17_14} ${RcG}
pair_coeff 17 15 ${a_17_15} ${a_17_15} ${RcG}
pair_coeff 17 16 ${a_17_16} ${a_17_16} ${RcG}
pair_coeff 17 17 ${a_17_17} ${a_17_17} ${RcG}
pair_coeff 17 18 ${a_17_18} ${a_17_18} ${RcG}
pair_coeff 17 19 ${a_17_19} ${a_17_19} ${RcG}
pair_coeff 17 20 ${a_17_20} ${a_17_20} ${RcG}
pair_coeff 17 21 ${a_17_21} ${a_17_21} ${RcG}
pair_coeff 17 22 ${a_17_22} ${a_17_22} ${RcG}
pair_coeff 17 23 ${a_17_23} ${a_17_23} ${RcG}
pair_coeff 18 1 ${a_18_1} ${a_18_1} ${RcG}
pair_coeff 18 2 ${a_18_2} ${a_18_2} ${RcG}
pair_coeff 18 3 ${a_18_3} ${a_18_3} ${RcG}
pair_coeff 18 4 ${a_18_4} ${a_18_4} ${RcG}
pair_coeff 18 5 ${a_18_5} ${a_18_5} ${RcG}
pair_coeff 18 6 ${a_18_6} ${a_18_6} ${RcG}
pair_coeff 18 7 ${a_18_7} ${a_18_7} ${RcG}
pair_coeff 18 8 ${a_18_8} ${a_18_8} ${RcG}
pair_coeff 18 9 ${a_18_9} ${a_18_9} ${RcG}
pair_coeff 18 10 ${a_18_10} ${a_18_10} ${RcG}
pair_coeff 18 11 ${a_18_11} ${a_18_11} ${RcG}
pair_coeff 18 12 ${a_18_12} ${a_18_12} ${RcG}
pair_coeff 18 13 ${a_18_13} ${a_18_13} ${RcG}
pair_coeff 18 14 ${a_18_14} ${a_18_14} ${RcG}
pair_coeff 18 15 ${a_18_15} ${a_18_15} ${RcG}
pair_coeff 18 16 ${a_18_16} ${a_18_16} ${RcG}
pair_coeff 18 17 ${a_18_17} ${a_18_17} ${RcG}
pair_coeff 18 18 ${a_18_18} ${a_18_18} ${RcG}
pair_coeff 18 19 ${a_18_19} ${a_18_19} ${RcG}
pair_coeff 18 20 ${a_18_20} ${a_18_20} ${RcG}
pair_coeff 18 21 ${a_18_21} ${a_18_21} ${RcG}
pair_coeff 18 22 ${a_18_22} ${a_18_22} ${RcG}
pair_coeff 18 23 ${a_18_23} ${a_18_23} ${RcG}
pair_coeff 19 1 ${a_19_1} ${a_19_1} ${RcG}
pair_coeff 19 2 ${a_19_2} ${a_19_2} ${RcG}
pair_coeff 19 3 ${a_19_3} ${a_19_3} ${RcG}
pair_coeff 19 4 ${a_19_4} ${a_19_4} ${RcG}
pair_coeff 19 5 ${a_19_5} ${a_19_5} ${RcG}
pair_coeff 19 6 ${a_19_6} ${a_19_6} ${RcG}
pair_coeff 19 7 ${a_19_7} ${a_19_7} ${RcG}
pair_coeff 19 8 ${a_19_8} ${a_19_8} ${RcG}
pair_coeff 19 9 ${a_19_9} ${a_19_9} ${RcG}
pair_coeff 19 10 ${a_19_10} ${a_19_10} ${RcG}
pair_coeff 19 11 ${a_19_11} ${a_19_11} ${RcG}
pair_coeff 19 12 ${a_19_12} ${a_19_12} ${RcG}
pair_coeff 19 13 ${a_19_13} ${a_19_13} ${RcG}
pair_coeff 19 14 ${a_19_14} ${a_19_14} ${RcG}
pair_coeff 19 15 ${a_19_15} ${a_19_15} ${RcG}
pair_coeff 19 16 ${a_19_16} ${a_19_16} ${RcG}
pair_coeff 19 17 ${a_19_17} ${a_19_17} ${RcG}
pair_coeff 19 18 ${a_19_18} ${a_19_18} ${RcG}
pair_coeff 19 19 ${a_19_19} ${a_19_19} ${RcG}
pair_coeff 19 20 ${a_19_20} ${a_19_20} ${RcG}
pair_coeff 19 21 ${a_19_21} ${a_19_21} ${RcG}
pair_coeff 19 22 ${a_19_22} ${a_19_22} ${RcG}
pair_coeff 19 23 ${a_19_23} ${a_19_23} ${RcG}
pair_coeff 20 1 ${a_20_1} ${a_20_1} ${RcG}
pair_coeff 20 2 ${a_20_2} ${a_20_2} ${RcG}
pair_coeff 20 3 ${a_20_3} ${a_20_3} ${RcG}
pair_coeff 20 4 ${a_20_4} ${a_20_4} ${RcG}
pair_coeff 20 5 ${a_20_5} ${a_20_5} ${RcG}
pair_coeff 20 6 ${a_20_6} ${a_20_6} ${RcG}
pair_coeff 20 7 ${a_20_7} ${a_20_7} ${RcG}
pair_coeff 20 8 ${a_20_8} ${a_20_8} ${RcG}
pair_coeff 20 9 ${a_20_9} ${a_20_9} ${RcG}
pair_coeff 20 10 ${a_20_10} ${a_20_10} ${RcG}
pair_coeff 20 11 ${a_20_11} ${a_20_11} ${RcG}
pair_coeff 20 12 ${a_20_12} ${a_20_12} ${RcG}
pair_coeff 20 13 ${a_20_13} ${a_20_13} ${RcG}
pair_coeff 20 14 ${a_20_14} ${a_20_14} ${RcG}
pair_coeff 20 15 ${a_20_15} ${a_20_15} ${RcG}
pair_coeff 20 16 ${a_20_16} ${a_20_16} ${RcG}
pair_coeff 20 17 ${a_20_17} ${a_20_17} ${RcG}
pair_coeff 20 18 ${a_20_18} ${a_20_18} ${RcG}
pair_coeff 20 19 ${a_20_19} ${a_20_19} ${RcG}
pair_coeff 20 20 ${a_20_20} ${a_20_20} ${RcG}
pair_coeff 20 21 ${a_20_21} ${a_20_21} ${RcG}
pair_coeff 20 22 ${a_20_22} ${a_20_22} ${RcG}
pair_coeff 20 23 ${a_20_23} ${a_20_23} ${RcG}
pair_coeff 21 1 ${a_21_1} ${a_21_1} ${RcG}
pair_coeff 21 2 ${a_21_2} ${a_21_2} ${RcG}
pair_coeff 21 3 ${a_21_3} ${a_21_3} ${RcG}
pair_coeff 21 4 ${a_21_4} ${a_21_4} ${RcG}
pair_coeff 21 5 ${a_21_5} ${a_21_5} ${RcG}
pair_coeff 21 6 ${a_21_6} ${a_21_6} ${RcG}
pair_coeff 21 7 ${a_21_7} ${a_21_7} ${RcG}
pair_coeff 21 8 ${a_21_8} ${a_21_8} ${RcG}
pair_coeff 21 9 ${a_21_9} ${a_21_9} ${RcG}
pair_coeff 21 10 ${a_21_10} ${a_21_10} ${RcG}
pair_coeff 21 11 ${a_21_11} ${a_21_11} ${RcG}
pair_coeff 21 12 ${a_21_12} ${a_21_12} ${RcG}
pair_coeff 21 13 ${a_21_13} ${a_21_13} ${RcG}
pair_coeff 21 14 ${a_21_14} ${a_21_14} ${RcG}
pair_coeff 21 15 ${a_21_15} ${a_21_15} ${RcG}
pair_coeff 21 16 ${a_21_16} ${a_21_16} ${RcG}
pair_coeff 21 17 ${a_21_17} ${a_21_17} ${RcG}
pair_coeff 21 18 ${a_21_18} ${a_21_18} ${RcG}
pair_coeff 21 19 ${a_21_19} ${a_21_19} ${RcG}
pair_coeff 21 20 ${a_21_20} ${a_21_20} ${RcG}
pair_coeff 21 21 ${a_21_21} ${a_21_21} ${RcG}
pair_coeff 21 22 ${a_21_22} ${a_21_22} ${RcG}
pair_coeff 21 23 ${a_21_23} ${a_21_23} ${RcG}
pair_coeff 22 1 ${a_22_1} ${a_22_1} ${RcG}
pair_coeff 22 2 ${a_22_2} ${a_22_2} ${RcG}
pair_coeff 22 3 ${a_22_3} ${a_22_3} ${RcG}
pair_coeff 22 4 ${a_22_4} ${a_22_4} ${RcG}
pair_coeff 22 5 ${a_22_5} ${a_22_5} ${RcG}
pair_coeff 22 6 ${a_22_6} ${a_22_6} ${RcG}
pair_coeff 22 7 ${a_22_7} ${a_22_7} ${RcG}
pair_coeff 22 8 ${a_22_8} ${a_22_8} ${RcG}
pair_coeff 22 9 ${a_22_9} ${a_22_9} ${RcG}
pair_coeff 22 10 ${a_22_10} ${a_22_10} ${RcG}
pair_coeff 22 11 ${a_22_11} ${a_22_11} ${RcG}
pair_coeff 22 12 ${a_22_12} ${a_22_12} ${RcG}
pair_coeff 22 13 ${a_22_13} ${a_22_13} ${RcG}
pair_coeff 22 14 ${a_22_14} ${a_22_14} ${RcG}
pair_coeff 22 15 ${a_22_15} ${a_22_15} ${RcG}
pair_coeff 22 16 ${a_22_16} ${a_22_16} ${RcG}
pair_coeff 22 17 ${a_22_17} ${a_22_17} ${RcG}
pair_coeff 22 18 ${a_22_18} ${a_22_18} ${RcG}
pair_coeff 22 19 ${a_22_19} ${a_22_19} ${RcG}
pair_coeff 22 20 ${a_22_20} ${a_22_20} ${RcG}
pair_coeff 22 21 ${a_22_21} ${a_22_21} ${RcG}
pair_coeff 22 22 ${a_22_22} ${a_22_22} ${RcG}
pair_coeff 22 23 ${a_22_23} ${a_22_23} ${RcG}
pair_coeff 23 1 ${a_23_1} ${a_23_1} ${RcG}
pair_coeff 23 2 ${a_23_2} ${a_23_2} ${RcG}
pair_coeff 23 3 ${a_23_3} ${a_23_3} ${RcG}
pair_coeff 23 4 ${a_23_4} ${a_23_4} ${RcG}
pair_coeff 23 5 ${a_23_5} ${a_23_5} ${RcG}
pair_coeff 23 6 ${a_23_6} ${a_23_6} ${RcG}
pair_coeff 23 7 ${a_23_7} ${a_23_7} ${RcG}
pair_coeff 23 8 ${a_23_8} ${a_23_8} ${RcG}
pair_coeff 23 9 ${a_23_9} ${a_23_9} ${RcG}
pair_coeff 23 10 ${a_23_10} ${a_23_10} ${RcG}
pair_coeff 23 11 ${a_23_11} ${a_23_11} ${RcG}
pair_coeff 23 12 ${a_23_12} ${a_23_12} ${RcG}
pair_coeff 23 13 ${a_23_13} ${a_23_13} ${RcG}
pair_coeff 23 14 ${a_23_14} ${a_23_14} ${RcG}
pair_coeff 23 15 ${a_23_15} ${a_23_15} ${RcG}
pair_coeff 23 16 ${a_23_16} ${a_23_16} ${RcG}
pair_coeff 23 17 ${a_23_17} ${a_23_17} ${RcG}
pair_coeff 23 18 ${a_23_18} ${a_23_18} ${RcG}
pair_coeff 23 19 ${a_23_19} ${a_23_19} ${RcG}
pair_coeff 23 20 ${a_23_20} ${a_23_20} ${RcG}
pair_coeff 23 21 ${a_23_21} ${a_23_21} ${RcG}
pair_coeff 23 22 ${a_23_22} ${a_23_22} ${RcG}
pair_coeff 23 23 ${a_23_23} ${a_23_23} ${RcG}
#------------------------------------------------------